\ LP format - for model browsing. Use MPS format to capture full model detail.
Minimize
 
Subject To
 c1_0: x_65_0 + x_64_0 + x_84_0 + x_9_0 + x_41_0 + x_90_0 = 1
 c1_1: x_65_1 + x_64_1 + x_84_1 + x_9_1 + x_41_1 + x_90_1 = 1
 c1_2: x_65_2 + x_64_2 + x_84_2 + x_9_2 + x_41_2 + x_90_2 = 1
 c1_3: x_65_3 + x_64_3 + x_84_3 + x_9_3 + x_41_3 + x_90_3 = 1
 c1_4: x_65_4 + x_64_4 + x_84_4 + x_9_4 + x_41_4 + x_90_4 = 1
 c1_5: x_65_5 + x_64_5 + x_84_5 + x_9_5 + x_41_5 + x_90_5 = 1
 c1_6: x_65_6 + x_64_6 + x_84_6 + x_9_6 + x_41_6 + x_90_6 = 1
 c1_7: x_65_7 + x_64_7 + x_84_7 + x_9_7 + x_41_7 + x_90_7 = 1
 c1_8: x_65_8 + x_64_8 + x_84_8 + x_9_8 + x_41_8 + x_90_8 = 1
 c1_9: x_65_9 + x_64_9 + x_84_9 + x_9_9 + x_41_9 + x_90_9 = 1
 c1_10: x_65_10 + x_64_10 + x_84_10 + x_9_10 + x_41_10 + x_90_10 = 1
 c1_11: x_65_11 + x_64_11 + x_84_11 + x_9_11 + x_41_11 + x_90_11 = 1
 c1_12: x_65_12 + x_64_12 + x_84_12 + x_9_12 + x_41_12 + x_90_12 = 1
 c1_13: x_65_13 + x_64_13 + x_84_13 + x_9_13 + x_41_13 + x_90_13 = 1
 c1_14: x_65_14 + x_64_14 + x_84_14 + x_9_14 + x_41_14 + x_90_14 = 1
 c1_15: x_65_15 + x_64_15 + x_84_15 + x_9_15 + x_41_15 + x_90_15 = 1
 c1_16: x_65_16 + x_64_16 + x_84_16 + x_9_16 + x_41_16 + x_90_16 = 1
 c1_17: x_65_17 + x_64_17 + x_84_17 + x_9_17 + x_41_17 + x_90_17 = 1
 c1_18: x_65_18 + x_64_18 + x_84_18 + x_9_18 + x_41_18 + x_90_18 = 1
 c1_19: x_65_19 + x_64_19 + x_84_19 + x_9_19 + x_41_19 + x_90_19 = 1
 c1_20: x_65_20 + x_64_20 + x_84_20 + x_9_20 + x_41_20 + x_90_20 = 1
 c1_21: x_65_21 + x_64_21 + x_84_21 + x_9_21 + x_41_21 + x_90_21 = 1
 c1_22: x_65_22 + x_64_22 + x_84_22 + x_9_22 + x_41_22 + x_90_22 = 1
 c1_23: x_65_23 + x_64_23 + x_84_23 + x_9_23 + x_41_23 + x_90_23 = 1
 c1_24: x_65_24 + x_64_24 + x_84_24 + x_9_24 + x_41_24 + x_90_24 = 1
 c1_25: x_65_25 + x_64_25 + x_84_25 + x_9_25 + x_41_25 + x_90_25 = 1
 c1_26: x_65_26 + x_64_26 + x_84_26 + x_9_26 + x_41_26 + x_90_26 = 1
 c1_27: x_65_27 + x_64_27 + x_84_27 + x_9_27 + x_41_27 + x_90_27 = 1
 c1_28: x_65_28 + x_64_28 + x_84_28 + x_9_28 + x_41_28 + x_90_28 = 1
 c1_29: x_65_29 + x_64_29 + x_84_29 + x_9_29 + x_41_29 + x_90_29 = 1
 c1_30: x_65_30 + x_64_30 + x_84_30 + x_9_30 + x_41_30 + x_90_30 = 1
 c1_31: x_65_31 + x_64_31 + x_84_31 + x_9_31 + x_41_31 + x_90_31 = 1
 c1_32: x_65_32 + x_64_32 + x_84_32 + x_9_32 + x_41_32 + x_90_32 = 1
 c1_33: x_65_33 + x_64_33 + x_84_33 + x_9_33 + x_41_33 + x_90_33 = 1
 c1_34: x_65_34 + x_64_34 + x_84_34 + x_9_34 + x_41_34 + x_90_34 = 1
 c1_35: x_65_35 + x_64_35 + x_84_35 + x_9_35 + x_41_35 + x_90_35 = 1
 c1_36: x_65_36 + x_64_36 + x_84_36 + x_9_36 + x_41_36 + x_90_36 = 1
 c1_37: x_65_37 + x_64_37 + x_84_37 + x_9_37 + x_41_37 + x_90_37 = 1
 c1_38: x_65_38 + x_64_38 + x_84_38 + x_9_38 + x_41_38 + x_90_38 = 1
 c1_39: x_65_39 + x_64_39 + x_84_39 + x_9_39 + x_41_39 + x_90_39 = 1
 c1_40: x_65_40 + x_64_40 + x_84_40 + x_9_40 + x_41_40 + x_90_40 = 1
 c1_41: x_65_41 + x_64_41 + x_84_41 + x_9_41 + x_41_41 + x_90_41 = 1
 c1_42: x_65_42 + x_64_42 + x_84_42 + x_9_42 + x_41_42 + x_90_42 = 1
 c1_43: x_65_43 + x_64_43 + x_84_43 + x_9_43 + x_41_43 + x_90_43 = 1
 c1_44: x_65_44 + x_64_44 + x_84_44 + x_9_44 + x_41_44 + x_90_44 = 1
 c1_45: x_65_45 + x_64_45 + x_84_45 + x_9_45 + x_41_45 + x_90_45 = 1
 c1_46: x_65_46 + x_64_46 + x_84_46 + x_9_46 + x_41_46 + x_90_46 = 1
 c1_47: x_65_47 + x_64_47 + x_84_47 + x_9_47 + x_41_47 + x_90_47 = 1
 c1_48: x_65_48 + x_64_48 + x_84_48 + x_9_48 + x_41_48 + x_90_48 = 1
 c1_49: x_65_49 + x_64_49 + x_84_49 + x_9_49 + x_41_49 + x_90_49 = 1
 c1_50: x_65_50 + x_64_50 + x_84_50 + x_9_50 + x_41_50 + x_90_50 = 1
 c1_51: x_65_51 + x_64_51 + x_84_51 + x_9_51 + x_41_51 + x_90_51 = 1
 c1_52: x_65_52 + x_64_52 + x_84_52 + x_9_52 + x_41_52 + x_90_52 = 1
 c1_53: x_65_53 + x_64_53 + x_84_53 + x_9_53 + x_41_53 + x_90_53 = 1
 c1_54: x_65_54 + x_64_54 + x_84_54 + x_9_54 + x_41_54 + x_90_54 = 1
 c1_55: x_65_55 + x_64_55 + x_84_55 + x_9_55 + x_41_55 + x_90_55 = 1
 c1_56: x_65_56 + x_64_56 + x_84_56 + x_9_56 + x_41_56 + x_90_56 = 1
 c1_57: x_65_57 + x_64_57 + x_84_57 + x_9_57 + x_41_57 + x_90_57 = 1
 c1_58: x_65_58 + x_64_58 + x_84_58 + x_9_58 + x_41_58 + x_90_58 = 1
 c1_59: x_65_59 + x_64_59 + x_84_59 + x_9_59 + x_41_59 + x_90_59 = 1
 c1_60: x_65_60 + x_64_60 + x_84_60 + x_9_60 + x_41_60 + x_90_60 = 1
 c1_61: x_65_61 + x_64_61 + x_84_61 + x_9_61 + x_41_61 + x_90_61 = 1
 c1_62: x_65_62 + x_64_62 + x_84_62 + x_9_62 + x_41_62 + x_90_62 = 1
 c1_63: x_65_63 + x_64_63 + x_84_63 + x_9_63 + x_41_63 + x_90_63 = 1
 c1_64: x_65_64 + x_64_64 + x_84_64 + x_9_64 + x_41_64 + x_90_64 = 1
 c1_65: x_65_65 + x_64_65 + x_84_65 + x_9_65 + x_41_65 + x_90_65 = 1
 c1_66: x_65_66 + x_64_66 + x_84_66 + x_9_66 + x_41_66 + x_90_66 = 1
 c1_67: x_65_67 + x_64_67 + x_84_67 + x_9_67 + x_41_67 + x_90_67 = 1
 c1_68: x_65_68 + x_64_68 + x_84_68 + x_9_68 + x_41_68 + x_90_68 = 1
 c1_69: x_65_69 + x_64_69 + x_84_69 + x_9_69 + x_41_69 + x_90_69 = 1
 c1_70: x_65_70 + x_64_70 + x_84_70 + x_9_70 + x_41_70 + x_90_70 = 1
 c1_71: x_65_71 + x_64_71 + x_84_71 + x_9_71 + x_41_71 + x_90_71 = 1
 c1_72: x_65_72 + x_64_72 + x_84_72 + x_9_72 + x_41_72 + x_90_72 = 1
 c1_73: x_65_73 + x_64_73 + x_84_73 + x_9_73 + x_41_73 + x_90_73 = 1
 c1_74: x_65_74 + x_64_74 + x_84_74 + x_9_74 + x_41_74 + x_90_74 = 1
 c1_75: x_65_75 + x_64_75 + x_84_75 + x_9_75 + x_41_75 + x_90_75 = 1
 c1_76: x_65_76 + x_64_76 + x_84_76 + x_9_76 + x_41_76 + x_90_76 = 1
 c1_77: x_65_77 + x_64_77 + x_84_77 + x_9_77 + x_41_77 + x_90_77 = 1
 c1_78: x_65_78 + x_64_78 + x_84_78 + x_9_78 + x_41_78 + x_90_78 = 1
 c1_79: x_65_79 + x_64_79 + x_84_79 + x_9_79 + x_41_79 + x_90_79 = 1
 c1_80: x_65_80 + x_64_80 + x_84_80 + x_9_80 + x_41_80 + x_90_80 = 1
 c1_81: x_65_81 + x_64_81 + x_84_81 + x_9_81 + x_41_81 + x_90_81 = 1
 c1_82: x_65_82 + x_64_82 + x_84_82 + x_9_82 + x_41_82 + x_90_82 = 1
 c1_83: x_65_83 + x_64_83 + x_84_83 + x_9_83 + x_41_83 + x_90_83 = 1
 c1_84: x_65_84 + x_64_84 + x_84_84 + x_9_84 + x_41_84 + x_90_84 = 1
 c1_85: x_65_85 + x_64_85 + x_84_85 + x_9_85 + x_41_85 + x_90_85 = 1
 c1_86: x_65_86 + x_64_86 + x_84_86 + x_9_86 + x_41_86 + x_90_86 = 1
 c1_87: x_65_87 + x_64_87 + x_84_87 + x_9_87 + x_41_87 + x_90_87 = 1
 c1_88: x_65_88 + x_64_88 + x_84_88 + x_9_88 + x_41_88 + x_90_88 = 1
 c1_89: x_65_89 + x_64_89 + x_84_89 + x_9_89 + x_41_89 + x_90_89 = 1
 c1_90: x_65_90 + x_64_90 + x_84_90 + x_9_90 + x_41_90 + x_90_90 = 1
 c1_91: x_65_91 + x_64_91 + x_84_91 + x_9_91 + x_41_91 + x_90_91 = 1
 c1_92: x_65_92 + x_64_92 + x_84_92 + x_9_92 + x_41_92 + x_90_92 = 1
 c1_93: x_65_93 + x_64_93 + x_84_93 + x_9_93 + x_41_93 + x_90_93 = 1
 c1_94: x_65_94 + x_64_94 + x_84_94 + x_9_94 + x_41_94 + x_90_94 = 1
 c1_95: x_65_95 + x_64_95 + x_84_95 + x_9_95 + x_41_95 + x_90_95 = 1
 c1_96: x_65_96 + x_64_96 + x_84_96 + x_9_96 + x_41_96 + x_90_96 = 1
 c1_97: x_65_97 + x_64_97 + x_84_97 + x_9_97 + x_41_97 + x_90_97 = 1
 c1_98: x_65_98 + x_64_98 + x_84_98 + x_9_98 + x_41_98 + x_90_98 = 1
 c1_99: x_65_99 + x_64_99 + x_84_99 + x_9_99 + x_41_99 + x_90_99 = 1
 c2a_0: 517 x_65_0 + 515 x_65_1 + 499 x_65_2 + 478 x_65_3 + 507 x_65_4
   + 534 x_65_5 + 504 x_65_6 + 539 x_65_7 + 509 x_65_8 + 508 x_65_9
   + 525 x_65_10 + 509 x_65_11 + 520 x_65_12 + 489 x_65_13 + 478 x_65_14
   + 525 x_65_15 + 510 x_65_16 + 519 x_65_17 + 470 x_65_18 + 503 x_65_19
   + 520 x_65_20 + 493 x_65_21 + 450 x_65_22 + 480 x_65_23 + 509 x_65_24
   + 502 x_65_25 + 515 x_65_26 + 537 x_65_27 + 489 x_65_28 + 536 x_65_29
   + 521 x_65_30 + 502 x_65_31 + 523 x_65_32 + 521 x_65_33 + 529 x_65_34
   + 524 x_65_35 + 467 x_65_36 + 509 x_65_37 + 508 x_65_38 + 556 x_65_39
   + 565 x_65_40 + 508 x_65_41 + 518 x_65_42 + 515 x_65_43 + 525 x_65_44
   + 532 x_65_45 + 474 x_65_46 + 499 x_65_47 + 471 x_65_48 + 480 x_65_49
   + 533 x_65_50 + 540 x_65_51 + 509 x_65_52 + 531 x_65_53 + 481 x_65_54
   + 495 x_65_55 + 534 x_65_56 + 498 x_65_57 + 530 x_65_58 + 526 x_65_59
   + 516 x_65_60 + 483 x_65_61 + 531 x_65_62 + 548 x_65_63 + 525 x_65_64
   + 511 x_65_65 + 520 x_65_66 + 528 x_65_67 + 504 x_65_68 + 502 x_65_69
   + 486 x_65_70 + 495 x_65_71 + 487 x_65_72 + 495 x_65_73 + 515 x_65_74
   + 482 x_65_75 + 510 x_65_76 + 532 x_65_77 + 502 x_65_78 + 523 x_65_79
   + 502 x_65_80 + 528 x_65_81 + 518 x_65_82 + 506 x_65_83 + 466 x_65_84
   + 521 x_65_85 + 530 x_65_86 + 506 x_65_87 + 530 x_65_88 + 511 x_65_89
   + 533 x_65_90 + 519 x_65_91 + 504 x_65_92 + 492 x_65_93 + 499 x_65_94
   + 511 x_65_95 + 525 x_65_96 + 509 x_65_97 + 492 x_65_98 + 500 x_65_99
   >= 8076.583333333332
 c2b_0: 517 x_65_0 + 515 x_65_1 + 499 x_65_2 + 478 x_65_3 + 507 x_65_4
   + 534 x_65_5 + 504 x_65_6 + 539 x_65_7 + 509 x_65_8 + 508 x_65_9
   + 525 x_65_10 + 509 x_65_11 + 520 x_65_12 + 489 x_65_13 + 478 x_65_14
   + 525 x_65_15 + 510 x_65_16 + 519 x_65_17 + 470 x_65_18 + 503 x_65_19
   + 520 x_65_20 + 493 x_65_21 + 450 x_65_22 + 480 x_65_23 + 509 x_65_24
   + 502 x_65_25 + 515 x_65_26 + 537 x_65_27 + 489 x_65_28 + 536 x_65_29
   + 521 x_65_30 + 502 x_65_31 + 523 x_65_32 + 521 x_65_33 + 529 x_65_34
   + 524 x_65_35 + 467 x_65_36 + 509 x_65_37 + 508 x_65_38 + 556 x_65_39
   + 565 x_65_40 + 508 x_65_41 + 518 x_65_42 + 515 x_65_43 + 525 x_65_44
   + 532 x_65_45 + 474 x_65_46 + 499 x_65_47 + 471 x_65_48 + 480 x_65_49
   + 533 x_65_50 + 540 x_65_51 + 509 x_65_52 + 531 x_65_53 + 481 x_65_54
   + 495 x_65_55 + 534 x_65_56 + 498 x_65_57 + 530 x_65_58 + 526 x_65_59
   + 516 x_65_60 + 483 x_65_61 + 531 x_65_62 + 548 x_65_63 + 525 x_65_64
   + 511 x_65_65 + 520 x_65_66 + 528 x_65_67 + 504 x_65_68 + 502 x_65_69
   + 486 x_65_70 + 495 x_65_71 + 487 x_65_72 + 495 x_65_73 + 515 x_65_74
   + 482 x_65_75 + 510 x_65_76 + 532 x_65_77 + 502 x_65_78 + 523 x_65_79
   + 502 x_65_80 + 528 x_65_81 + 518 x_65_82 + 506 x_65_83 + 466 x_65_84
   + 521 x_65_85 + 530 x_65_86 + 506 x_65_87 + 530 x_65_88 + 511 x_65_89
   + 533 x_65_90 + 519 x_65_91 + 504 x_65_92 + 492 x_65_93 + 499 x_65_94
   + 511 x_65_95 + 525 x_65_96 + 509 x_65_97 + 492 x_65_98 + 500 x_65_99
   <= 8926.75
 c2a_1: 517 x_64_0 + 515 x_64_1 + 499 x_64_2 + 478 x_64_3 + 507 x_64_4
   + 534 x_64_5 + 504 x_64_6 + 539 x_64_7 + 509 x_64_8 + 508 x_64_9
   + 525 x_64_10 + 509 x_64_11 + 520 x_64_12 + 489 x_64_13 + 478 x_64_14
   + 525 x_64_15 + 510 x_64_16 + 519 x_64_17 + 470 x_64_18 + 503 x_64_19
   + 520 x_64_20 + 493 x_64_21 + 450 x_64_22 + 480 x_64_23 + 509 x_64_24
   + 502 x_64_25 + 515 x_64_26 + 537 x_64_27 + 489 x_64_28 + 536 x_64_29
   + 521 x_64_30 + 502 x_64_31 + 523 x_64_32 + 521 x_64_33 + 529 x_64_34
   + 524 x_64_35 + 467 x_64_36 + 509 x_64_37 + 508 x_64_38 + 556 x_64_39
   + 565 x_64_40 + 508 x_64_41 + 518 x_64_42 + 515 x_64_43 + 525 x_64_44
   + 532 x_64_45 + 474 x_64_46 + 499 x_64_47 + 471 x_64_48 + 480 x_64_49
   + 533 x_64_50 + 540 x_64_51 + 509 x_64_52 + 531 x_64_53 + 481 x_64_54
   + 495 x_64_55 + 534 x_64_56 + 498 x_64_57 + 530 x_64_58 + 526 x_64_59
   + 516 x_64_60 + 483 x_64_61 + 531 x_64_62 + 548 x_64_63 + 525 x_64_64
   + 511 x_64_65 + 520 x_64_66 + 528 x_64_67 + 504 x_64_68 + 502 x_64_69
   + 486 x_64_70 + 495 x_64_71 + 487 x_64_72 + 495 x_64_73 + 515 x_64_74
   + 482 x_64_75 + 510 x_64_76 + 532 x_64_77 + 502 x_64_78 + 523 x_64_79
   + 502 x_64_80 + 528 x_64_81 + 518 x_64_82 + 506 x_64_83 + 466 x_64_84
   + 521 x_64_85 + 530 x_64_86 + 506 x_64_87 + 530 x_64_88 + 511 x_64_89
   + 533 x_64_90 + 519 x_64_91 + 504 x_64_92 + 492 x_64_93 + 499 x_64_94
   + 511 x_64_95 + 525 x_64_96 + 509 x_64_97 + 492 x_64_98 + 500 x_64_99
   >= 8076.583333333332
 c2b_1: 517 x_64_0 + 515 x_64_1 + 499 x_64_2 + 478 x_64_3 + 507 x_64_4
   + 534 x_64_5 + 504 x_64_6 + 539 x_64_7 + 509 x_64_8 + 508 x_64_9
   + 525 x_64_10 + 509 x_64_11 + 520 x_64_12 + 489 x_64_13 + 478 x_64_14
   + 525 x_64_15 + 510 x_64_16 + 519 x_64_17 + 470 x_64_18 + 503 x_64_19
   + 520 x_64_20 + 493 x_64_21 + 450 x_64_22 + 480 x_64_23 + 509 x_64_24
   + 502 x_64_25 + 515 x_64_26 + 537 x_64_27 + 489 x_64_28 + 536 x_64_29
   + 521 x_64_30 + 502 x_64_31 + 523 x_64_32 + 521 x_64_33 + 529 x_64_34
   + 524 x_64_35 + 467 x_64_36 + 509 x_64_37 + 508 x_64_38 + 556 x_64_39
   + 565 x_64_40 + 508 x_64_41 + 518 x_64_42 + 515 x_64_43 + 525 x_64_44
   + 532 x_64_45 + 474 x_64_46 + 499 x_64_47 + 471 x_64_48 + 480 x_64_49
   + 533 x_64_50 + 540 x_64_51 + 509 x_64_52 + 531 x_64_53 + 481 x_64_54
   + 495 x_64_55 + 534 x_64_56 + 498 x_64_57 + 530 x_64_58 + 526 x_64_59
   + 516 x_64_60 + 483 x_64_61 + 531 x_64_62 + 548 x_64_63 + 525 x_64_64
   + 511 x_64_65 + 520 x_64_66 + 528 x_64_67 + 504 x_64_68 + 502 x_64_69
   + 486 x_64_70 + 495 x_64_71 + 487 x_64_72 + 495 x_64_73 + 515 x_64_74
   + 482 x_64_75 + 510 x_64_76 + 532 x_64_77 + 502 x_64_78 + 523 x_64_79
   + 502 x_64_80 + 528 x_64_81 + 518 x_64_82 + 506 x_64_83 + 466 x_64_84
   + 521 x_64_85 + 530 x_64_86 + 506 x_64_87 + 530 x_64_88 + 511 x_64_89
   + 533 x_64_90 + 519 x_64_91 + 504 x_64_92 + 492 x_64_93 + 499 x_64_94
   + 511 x_64_95 + 525 x_64_96 + 509 x_64_97 + 492 x_64_98 + 500 x_64_99
   <= 8926.75
 c2a_2: 517 x_84_0 + 515 x_84_1 + 499 x_84_2 + 478 x_84_3 + 507 x_84_4
   + 534 x_84_5 + 504 x_84_6 + 539 x_84_7 + 509 x_84_8 + 508 x_84_9
   + 525 x_84_10 + 509 x_84_11 + 520 x_84_12 + 489 x_84_13 + 478 x_84_14
   + 525 x_84_15 + 510 x_84_16 + 519 x_84_17 + 470 x_84_18 + 503 x_84_19
   + 520 x_84_20 + 493 x_84_21 + 450 x_84_22 + 480 x_84_23 + 509 x_84_24
   + 502 x_84_25 + 515 x_84_26 + 537 x_84_27 + 489 x_84_28 + 536 x_84_29
   + 521 x_84_30 + 502 x_84_31 + 523 x_84_32 + 521 x_84_33 + 529 x_84_34
   + 524 x_84_35 + 467 x_84_36 + 509 x_84_37 + 508 x_84_38 + 556 x_84_39
   + 565 x_84_40 + 508 x_84_41 + 518 x_84_42 + 515 x_84_43 + 525 x_84_44
   + 532 x_84_45 + 474 x_84_46 + 499 x_84_47 + 471 x_84_48 + 480 x_84_49
   + 533 x_84_50 + 540 x_84_51 + 509 x_84_52 + 531 x_84_53 + 481 x_84_54
   + 495 x_84_55 + 534 x_84_56 + 498 x_84_57 + 530 x_84_58 + 526 x_84_59
   + 516 x_84_60 + 483 x_84_61 + 531 x_84_62 + 548 x_84_63 + 525 x_84_64
   + 511 x_84_65 + 520 x_84_66 + 528 x_84_67 + 504 x_84_68 + 502 x_84_69
   + 486 x_84_70 + 495 x_84_71 + 487 x_84_72 + 495 x_84_73 + 515 x_84_74
   + 482 x_84_75 + 510 x_84_76 + 532 x_84_77 + 502 x_84_78 + 523 x_84_79
   + 502 x_84_80 + 528 x_84_81 + 518 x_84_82 + 506 x_84_83 + 466 x_84_84
   + 521 x_84_85 + 530 x_84_86 + 506 x_84_87 + 530 x_84_88 + 511 x_84_89
   + 533 x_84_90 + 519 x_84_91 + 504 x_84_92 + 492 x_84_93 + 499 x_84_94
   + 511 x_84_95 + 525 x_84_96 + 509 x_84_97 + 492 x_84_98 + 500 x_84_99
   >= 8076.583333333332
 c2b_2: 517 x_84_0 + 515 x_84_1 + 499 x_84_2 + 478 x_84_3 + 507 x_84_4
   + 534 x_84_5 + 504 x_84_6 + 539 x_84_7 + 509 x_84_8 + 508 x_84_9
   + 525 x_84_10 + 509 x_84_11 + 520 x_84_12 + 489 x_84_13 + 478 x_84_14
   + 525 x_84_15 + 510 x_84_16 + 519 x_84_17 + 470 x_84_18 + 503 x_84_19
   + 520 x_84_20 + 493 x_84_21 + 450 x_84_22 + 480 x_84_23 + 509 x_84_24
   + 502 x_84_25 + 515 x_84_26 + 537 x_84_27 + 489 x_84_28 + 536 x_84_29
   + 521 x_84_30 + 502 x_84_31 + 523 x_84_32 + 521 x_84_33 + 529 x_84_34
   + 524 x_84_35 + 467 x_84_36 + 509 x_84_37 + 508 x_84_38 + 556 x_84_39
   + 565 x_84_40 + 508 x_84_41 + 518 x_84_42 + 515 x_84_43 + 525 x_84_44
   + 532 x_84_45 + 474 x_84_46 + 499 x_84_47 + 471 x_84_48 + 480 x_84_49
   + 533 x_84_50 + 540 x_84_51 + 509 x_84_52 + 531 x_84_53 + 481 x_84_54
   + 495 x_84_55 + 534 x_84_56 + 498 x_84_57 + 530 x_84_58 + 526 x_84_59
   + 516 x_84_60 + 483 x_84_61 + 531 x_84_62 + 548 x_84_63 + 525 x_84_64
   + 511 x_84_65 + 520 x_84_66 + 528 x_84_67 + 504 x_84_68 + 502 x_84_69
   + 486 x_84_70 + 495 x_84_71 + 487 x_84_72 + 495 x_84_73 + 515 x_84_74
   + 482 x_84_75 + 510 x_84_76 + 532 x_84_77 + 502 x_84_78 + 523 x_84_79
   + 502 x_84_80 + 528 x_84_81 + 518 x_84_82 + 506 x_84_83 + 466 x_84_84
   + 521 x_84_85 + 530 x_84_86 + 506 x_84_87 + 530 x_84_88 + 511 x_84_89
   + 533 x_84_90 + 519 x_84_91 + 504 x_84_92 + 492 x_84_93 + 499 x_84_94
   + 511 x_84_95 + 525 x_84_96 + 509 x_84_97 + 492 x_84_98 + 500 x_84_99
   <= 8926.75
 c2a_3: 517 x_9_0 + 515 x_9_1 + 499 x_9_2 + 478 x_9_3 + 507 x_9_4
   + 534 x_9_5 + 504 x_9_6 + 539 x_9_7 + 509 x_9_8 + 508 x_9_9 + 525 x_9_10
   + 509 x_9_11 + 520 x_9_12 + 489 x_9_13 + 478 x_9_14 + 525 x_9_15
   + 510 x_9_16 + 519 x_9_17 + 470 x_9_18 + 503 x_9_19 + 520 x_9_20
   + 493 x_9_21 + 450 x_9_22 + 480 x_9_23 + 509 x_9_24 + 502 x_9_25
   + 515 x_9_26 + 537 x_9_27 + 489 x_9_28 + 536 x_9_29 + 521 x_9_30
   + 502 x_9_31 + 523 x_9_32 + 521 x_9_33 + 529 x_9_34 + 524 x_9_35
   + 467 x_9_36 + 509 x_9_37 + 508 x_9_38 + 556 x_9_39 + 565 x_9_40
   + 508 x_9_41 + 518 x_9_42 + 515 x_9_43 + 525 x_9_44 + 532 x_9_45
   + 474 x_9_46 + 499 x_9_47 + 471 x_9_48 + 480 x_9_49 + 533 x_9_50
   + 540 x_9_51 + 509 x_9_52 + 531 x_9_53 + 481 x_9_54 + 495 x_9_55
   + 534 x_9_56 + 498 x_9_57 + 530 x_9_58 + 526 x_9_59 + 516 x_9_60
   + 483 x_9_61 + 531 x_9_62 + 548 x_9_63 + 525 x_9_64 + 511 x_9_65
   + 520 x_9_66 + 528 x_9_67 + 504 x_9_68 + 502 x_9_69 + 486 x_9_70
   + 495 x_9_71 + 487 x_9_72 + 495 x_9_73 + 515 x_9_74 + 482 x_9_75
   + 510 x_9_76 + 532 x_9_77 + 502 x_9_78 + 523 x_9_79 + 502 x_9_80
   + 528 x_9_81 + 518 x_9_82 + 506 x_9_83 + 466 x_9_84 + 521 x_9_85
   + 530 x_9_86 + 506 x_9_87 + 530 x_9_88 + 511 x_9_89 + 533 x_9_90
   + 519 x_9_91 + 504 x_9_92 + 492 x_9_93 + 499 x_9_94 + 511 x_9_95
   + 525 x_9_96 + 509 x_9_97 + 492 x_9_98 + 500 x_9_99
   >= 8076.583333333332
 c2b_3: 517 x_9_0 + 515 x_9_1 + 499 x_9_2 + 478 x_9_3 + 507 x_9_4
   + 534 x_9_5 + 504 x_9_6 + 539 x_9_7 + 509 x_9_8 + 508 x_9_9 + 525 x_9_10
   + 509 x_9_11 + 520 x_9_12 + 489 x_9_13 + 478 x_9_14 + 525 x_9_15
   + 510 x_9_16 + 519 x_9_17 + 470 x_9_18 + 503 x_9_19 + 520 x_9_20
   + 493 x_9_21 + 450 x_9_22 + 480 x_9_23 + 509 x_9_24 + 502 x_9_25
   + 515 x_9_26 + 537 x_9_27 + 489 x_9_28 + 536 x_9_29 + 521 x_9_30
   + 502 x_9_31 + 523 x_9_32 + 521 x_9_33 + 529 x_9_34 + 524 x_9_35
   + 467 x_9_36 + 509 x_9_37 + 508 x_9_38 + 556 x_9_39 + 565 x_9_40
   + 508 x_9_41 + 518 x_9_42 + 515 x_9_43 + 525 x_9_44 + 532 x_9_45
   + 474 x_9_46 + 499 x_9_47 + 471 x_9_48 + 480 x_9_49 + 533 x_9_50
   + 540 x_9_51 + 509 x_9_52 + 531 x_9_53 + 481 x_9_54 + 495 x_9_55
   + 534 x_9_56 + 498 x_9_57 + 530 x_9_58 + 526 x_9_59 + 516 x_9_60
   + 483 x_9_61 + 531 x_9_62 + 548 x_9_63 + 525 x_9_64 + 511 x_9_65
   + 520 x_9_66 + 528 x_9_67 + 504 x_9_68 + 502 x_9_69 + 486 x_9_70
   + 495 x_9_71 + 487 x_9_72 + 495 x_9_73 + 515 x_9_74 + 482 x_9_75
   + 510 x_9_76 + 532 x_9_77 + 502 x_9_78 + 523 x_9_79 + 502 x_9_80
   + 528 x_9_81 + 518 x_9_82 + 506 x_9_83 + 466 x_9_84 + 521 x_9_85
   + 530 x_9_86 + 506 x_9_87 + 530 x_9_88 + 511 x_9_89 + 533 x_9_90
   + 519 x_9_91 + 504 x_9_92 + 492 x_9_93 + 499 x_9_94 + 511 x_9_95
   + 525 x_9_96 + 509 x_9_97 + 492 x_9_98 + 500 x_9_99 <= 8926.75
 c2a_4: 517 x_41_0 + 515 x_41_1 + 499 x_41_2 + 478 x_41_3 + 507 x_41_4
   + 534 x_41_5 + 504 x_41_6 + 539 x_41_7 + 509 x_41_8 + 508 x_41_9
   + 525 x_41_10 + 509 x_41_11 + 520 x_41_12 + 489 x_41_13 + 478 x_41_14
   + 525 x_41_15 + 510 x_41_16 + 519 x_41_17 + 470 x_41_18 + 503 x_41_19
   + 520 x_41_20 + 493 x_41_21 + 450 x_41_22 + 480 x_41_23 + 509 x_41_24
   + 502 x_41_25 + 515 x_41_26 + 537 x_41_27 + 489 x_41_28 + 536 x_41_29
   + 521 x_41_30 + 502 x_41_31 + 523 x_41_32 + 521 x_41_33 + 529 x_41_34
   + 524 x_41_35 + 467 x_41_36 + 509 x_41_37 + 508 x_41_38 + 556 x_41_39
   + 565 x_41_40 + 508 x_41_41 + 518 x_41_42 + 515 x_41_43 + 525 x_41_44
   + 532 x_41_45 + 474 x_41_46 + 499 x_41_47 + 471 x_41_48 + 480 x_41_49
   + 533 x_41_50 + 540 x_41_51 + 509 x_41_52 + 531 x_41_53 + 481 x_41_54
   + 495 x_41_55 + 534 x_41_56 + 498 x_41_57 + 530 x_41_58 + 526 x_41_59
   + 516 x_41_60 + 483 x_41_61 + 531 x_41_62 + 548 x_41_63 + 525 x_41_64
   + 511 x_41_65 + 520 x_41_66 + 528 x_41_67 + 504 x_41_68 + 502 x_41_69
   + 486 x_41_70 + 495 x_41_71 + 487 x_41_72 + 495 x_41_73 + 515 x_41_74
   + 482 x_41_75 + 510 x_41_76 + 532 x_41_77 + 502 x_41_78 + 523 x_41_79
   + 502 x_41_80 + 528 x_41_81 + 518 x_41_82 + 506 x_41_83 + 466 x_41_84
   + 521 x_41_85 + 530 x_41_86 + 506 x_41_87 + 530 x_41_88 + 511 x_41_89
   + 533 x_41_90 + 519 x_41_91 + 504 x_41_92 + 492 x_41_93 + 499 x_41_94
   + 511 x_41_95 + 525 x_41_96 + 509 x_41_97 + 492 x_41_98 + 500 x_41_99
   >= 8076.583333333332
 c2b_4: 517 x_41_0 + 515 x_41_1 + 499 x_41_2 + 478 x_41_3 + 507 x_41_4
   + 534 x_41_5 + 504 x_41_6 + 539 x_41_7 + 509 x_41_8 + 508 x_41_9
   + 525 x_41_10 + 509 x_41_11 + 520 x_41_12 + 489 x_41_13 + 478 x_41_14
   + 525 x_41_15 + 510 x_41_16 + 519 x_41_17 + 470 x_41_18 + 503 x_41_19
   + 520 x_41_20 + 493 x_41_21 + 450 x_41_22 + 480 x_41_23 + 509 x_41_24
   + 502 x_41_25 + 515 x_41_26 + 537 x_41_27 + 489 x_41_28 + 536 x_41_29
   + 521 x_41_30 + 502 x_41_31 + 523 x_41_32 + 521 x_41_33 + 529 x_41_34
   + 524 x_41_35 + 467 x_41_36 + 509 x_41_37 + 508 x_41_38 + 556 x_41_39
   + 565 x_41_40 + 508 x_41_41 + 518 x_41_42 + 515 x_41_43 + 525 x_41_44
   + 532 x_41_45 + 474 x_41_46 + 499 x_41_47 + 471 x_41_48 + 480 x_41_49
   + 533 x_41_50 + 540 x_41_51 + 509 x_41_52 + 531 x_41_53 + 481 x_41_54
   + 495 x_41_55 + 534 x_41_56 + 498 x_41_57 + 530 x_41_58 + 526 x_41_59
   + 516 x_41_60 + 483 x_41_61 + 531 x_41_62 + 548 x_41_63 + 525 x_41_64
   + 511 x_41_65 + 520 x_41_66 + 528 x_41_67 + 504 x_41_68 + 502 x_41_69
   + 486 x_41_70 + 495 x_41_71 + 487 x_41_72 + 495 x_41_73 + 515 x_41_74
   + 482 x_41_75 + 510 x_41_76 + 532 x_41_77 + 502 x_41_78 + 523 x_41_79
   + 502 x_41_80 + 528 x_41_81 + 518 x_41_82 + 506 x_41_83 + 466 x_41_84
   + 521 x_41_85 + 530 x_41_86 + 506 x_41_87 + 530 x_41_88 + 511 x_41_89
   + 533 x_41_90 + 519 x_41_91 + 504 x_41_92 + 492 x_41_93 + 499 x_41_94
   + 511 x_41_95 + 525 x_41_96 + 509 x_41_97 + 492 x_41_98 + 500 x_41_99
   <= 8926.75
 c2a_5: 517 x_90_0 + 515 x_90_1 + 499 x_90_2 + 478 x_90_3 + 507 x_90_4
   + 534 x_90_5 + 504 x_90_6 + 539 x_90_7 + 509 x_90_8 + 508 x_90_9
   + 525 x_90_10 + 509 x_90_11 + 520 x_90_12 + 489 x_90_13 + 478 x_90_14
   + 525 x_90_15 + 510 x_90_16 + 519 x_90_17 + 470 x_90_18 + 503 x_90_19
   + 520 x_90_20 + 493 x_90_21 + 450 x_90_22 + 480 x_90_23 + 509 x_90_24
   + 502 x_90_25 + 515 x_90_26 + 537 x_90_27 + 489 x_90_28 + 536 x_90_29
   + 521 x_90_30 + 502 x_90_31 + 523 x_90_32 + 521 x_90_33 + 529 x_90_34
   + 524 x_90_35 + 467 x_90_36 + 509 x_90_37 + 508 x_90_38 + 556 x_90_39
   + 565 x_90_40 + 508 x_90_41 + 518 x_90_42 + 515 x_90_43 + 525 x_90_44
   + 532 x_90_45 + 474 x_90_46 + 499 x_90_47 + 471 x_90_48 + 480 x_90_49
   + 533 x_90_50 + 540 x_90_51 + 509 x_90_52 + 531 x_90_53 + 481 x_90_54
   + 495 x_90_55 + 534 x_90_56 + 498 x_90_57 + 530 x_90_58 + 526 x_90_59
   + 516 x_90_60 + 483 x_90_61 + 531 x_90_62 + 548 x_90_63 + 525 x_90_64
   + 511 x_90_65 + 520 x_90_66 + 528 x_90_67 + 504 x_90_68 + 502 x_90_69
   + 486 x_90_70 + 495 x_90_71 + 487 x_90_72 + 495 x_90_73 + 515 x_90_74
   + 482 x_90_75 + 510 x_90_76 + 532 x_90_77 + 502 x_90_78 + 523 x_90_79
   + 502 x_90_80 + 528 x_90_81 + 518 x_90_82 + 506 x_90_83 + 466 x_90_84
   + 521 x_90_85 + 530 x_90_86 + 506 x_90_87 + 530 x_90_88 + 511 x_90_89
   + 533 x_90_90 + 519 x_90_91 + 504 x_90_92 + 492 x_90_93 + 499 x_90_94
   + 511 x_90_95 + 525 x_90_96 + 509 x_90_97 + 492 x_90_98 + 500 x_90_99
   >= 8076.583333333332
 c2b_5: 517 x_90_0 + 515 x_90_1 + 499 x_90_2 + 478 x_90_3 + 507 x_90_4
   + 534 x_90_5 + 504 x_90_6 + 539 x_90_7 + 509 x_90_8 + 508 x_90_9
   + 525 x_90_10 + 509 x_90_11 + 520 x_90_12 + 489 x_90_13 + 478 x_90_14
   + 525 x_90_15 + 510 x_90_16 + 519 x_90_17 + 470 x_90_18 + 503 x_90_19
   + 520 x_90_20 + 493 x_90_21 + 450 x_90_22 + 480 x_90_23 + 509 x_90_24
   + 502 x_90_25 + 515 x_90_26 + 537 x_90_27 + 489 x_90_28 + 536 x_90_29
   + 521 x_90_30 + 502 x_90_31 + 523 x_90_32 + 521 x_90_33 + 529 x_90_34
   + 524 x_90_35 + 467 x_90_36 + 509 x_90_37 + 508 x_90_38 + 556 x_90_39
   + 565 x_90_40 + 508 x_90_41 + 518 x_90_42 + 515 x_90_43 + 525 x_90_44
   + 532 x_90_45 + 474 x_90_46 + 499 x_90_47 + 471 x_90_48 + 480 x_90_49
   + 533 x_90_50 + 540 x_90_51 + 509 x_90_52 + 531 x_90_53 + 481 x_90_54
   + 495 x_90_55 + 534 x_90_56 + 498 x_90_57 + 530 x_90_58 + 526 x_90_59
   + 516 x_90_60 + 483 x_90_61 + 531 x_90_62 + 548 x_90_63 + 525 x_90_64
   + 511 x_90_65 + 520 x_90_66 + 528 x_90_67 + 504 x_90_68 + 502 x_90_69
   + 486 x_90_70 + 495 x_90_71 + 487 x_90_72 + 495 x_90_73 + 515 x_90_74
   + 482 x_90_75 + 510 x_90_76 + 532 x_90_77 + 502 x_90_78 + 523 x_90_79
   + 502 x_90_80 + 528 x_90_81 + 518 x_90_82 + 506 x_90_83 + 466 x_90_84
   + 521 x_90_85 + 530 x_90_86 + 506 x_90_87 + 530 x_90_88 + 511 x_90_89
   + 533 x_90_90 + 519 x_90_91 + 504 x_90_92 + 492 x_90_93 + 499 x_90_94
   + 511 x_90_95 + 525 x_90_96 + 509 x_90_97 + 492 x_90_98 + 500 x_90_99
   <= 8926.75
Bounds
 x_65_65 = 1
 x_64_64 = 1
 x_84_84 = 1
 x_9_9 = 1
 x_41_41 = 1
 x_90_90 = 1
Binaries
 x_65_0 x_65_1 x_65_2 x_65_3 x_65_4 x_65_5 x_65_6 x_65_7 x_65_8 x_65_9
 x_65_10 x_65_11 x_65_12 x_65_13 x_65_14 x_65_15 x_65_16 x_65_17 x_65_18
 x_65_19 x_65_20 x_65_21 x_65_22 x_65_23 x_65_24 x_65_25 x_65_26 x_65_27
 x_65_28 x_65_29 x_65_30 x_65_31 x_65_32 x_65_33 x_65_34 x_65_35 x_65_36
 x_65_37 x_65_38 x_65_39 x_65_40 x_65_41 x_65_42 x_65_43 x_65_44 x_65_45
 x_65_46 x_65_47 x_65_48 x_65_49 x_65_50 x_65_51 x_65_52 x_65_53 x_65_54
 x_65_55 x_65_56 x_65_57 x_65_58 x_65_59 x_65_60 x_65_61 x_65_62 x_65_63
 x_65_64 x_65_65 x_65_66 x_65_67 x_65_68 x_65_69 x_65_70 x_65_71 x_65_72
 x_65_73 x_65_74 x_65_75 x_65_76 x_65_77 x_65_78 x_65_79 x_65_80 x_65_81
 x_65_82 x_65_83 x_65_84 x_65_85 x_65_86 x_65_87 x_65_88 x_65_89 x_65_90
 x_65_91 x_65_92 x_65_93 x_65_94 x_65_95 x_65_96 x_65_97 x_65_98 x_65_99
 x_64_0 x_64_1 x_64_2 x_64_3 x_64_4 x_64_5 x_64_6 x_64_7 x_64_8 x_64_9
 x_64_10 x_64_11 x_64_12 x_64_13 x_64_14 x_64_15 x_64_16 x_64_17 x_64_18
 x_64_19 x_64_20 x_64_21 x_64_22 x_64_23 x_64_24 x_64_25 x_64_26 x_64_27
 x_64_28 x_64_29 x_64_30 x_64_31 x_64_32 x_64_33 x_64_34 x_64_35 x_64_36
 x_64_37 x_64_38 x_64_39 x_64_40 x_64_41 x_64_42 x_64_43 x_64_44 x_64_45
 x_64_46 x_64_47 x_64_48 x_64_49 x_64_50 x_64_51 x_64_52 x_64_53 x_64_54
 x_64_55 x_64_56 x_64_57 x_64_58 x_64_59 x_64_60 x_64_61 x_64_62 x_64_63
 x_64_64 x_64_65 x_64_66 x_64_67 x_64_68 x_64_69 x_64_70 x_64_71 x_64_72
 x_64_73 x_64_74 x_64_75 x_64_76 x_64_77 x_64_78 x_64_79 x_64_80 x_64_81
 x_64_82 x_64_83 x_64_84 x_64_85 x_64_86 x_64_87 x_64_88 x_64_89 x_64_90
 x_64_91 x_64_92 x_64_93 x_64_94 x_64_95 x_64_96 x_64_97 x_64_98 x_64_99
 x_84_0 x_84_1 x_84_2 x_84_3 x_84_4 x_84_5 x_84_6 x_84_7 x_84_8 x_84_9
 x_84_10 x_84_11 x_84_12 x_84_13 x_84_14 x_84_15 x_84_16 x_84_17 x_84_18
 x_84_19 x_84_20 x_84_21 x_84_22 x_84_23 x_84_24 x_84_25 x_84_26 x_84_27
 x_84_28 x_84_29 x_84_30 x_84_31 x_84_32 x_84_33 x_84_34 x_84_35 x_84_36
 x_84_37 x_84_38 x_84_39 x_84_40 x_84_41 x_84_42 x_84_43 x_84_44 x_84_45
 x_84_46 x_84_47 x_84_48 x_84_49 x_84_50 x_84_51 x_84_52 x_84_53 x_84_54
 x_84_55 x_84_56 x_84_57 x_84_58 x_84_59 x_84_60 x_84_61 x_84_62 x_84_63
 x_84_64 x_84_65 x_84_66 x_84_67 x_84_68 x_84_69 x_84_70 x_84_71 x_84_72
 x_84_73 x_84_74 x_84_75 x_84_76 x_84_77 x_84_78 x_84_79 x_84_80 x_84_81
 x_84_82 x_84_83 x_84_84 x_84_85 x_84_86 x_84_87 x_84_88 x_84_89 x_84_90
 x_84_91 x_84_92 x_84_93 x_84_94 x_84_95 x_84_96 x_84_97 x_84_98 x_84_99
 x_9_0 x_9_1 x_9_2 x_9_3 x_9_4 x_9_5 x_9_6 x_9_7 x_9_8 x_9_9 x_9_10 x_9_11
 x_9_12 x_9_13 x_9_14 x_9_15 x_9_16 x_9_17 x_9_18 x_9_19 x_9_20 x_9_21
 x_9_22 x_9_23 x_9_24 x_9_25 x_9_26 x_9_27 x_9_28 x_9_29 x_9_30 x_9_31
 x_9_32 x_9_33 x_9_34 x_9_35 x_9_36 x_9_37 x_9_38 x_9_39 x_9_40 x_9_41
 x_9_42 x_9_43 x_9_44 x_9_45 x_9_46 x_9_47 x_9_48 x_9_49 x_9_50 x_9_51
 x_9_52 x_9_53 x_9_54 x_9_55 x_9_56 x_9_57 x_9_58 x_9_59 x_9_60 x_9_61
 x_9_62 x_9_63 x_9_64 x_9_65 x_9_66 x_9_67 x_9_68 x_9_69 x_9_70 x_9_71
 x_9_72 x_9_73 x_9_74 x_9_75 x_9_76 x_9_77 x_9_78 x_9_79 x_9_80 x_9_81
 x_9_82 x_9_83 x_9_84 x_9_85 x_9_86 x_9_87 x_9_88 x_9_89 x_9_90 x_9_91
 x_9_92 x_9_93 x_9_94 x_9_95 x_9_96 x_9_97 x_9_98 x_9_99 x_41_0 x_41_1
 x_41_2 x_41_3 x_41_4 x_41_5 x_41_6 x_41_7 x_41_8 x_41_9 x_41_10 x_41_11
 x_41_12 x_41_13 x_41_14 x_41_15 x_41_16 x_41_17 x_41_18 x_41_19 x_41_20
 x_41_21 x_41_22 x_41_23 x_41_24 x_41_25 x_41_26 x_41_27 x_41_28 x_41_29
 x_41_30 x_41_31 x_41_32 x_41_33 x_41_34 x_41_35 x_41_36 x_41_37 x_41_38
 x_41_39 x_41_40 x_41_41 x_41_42 x_41_43 x_41_44 x_41_45 x_41_46 x_41_47
 x_41_48 x_41_49 x_41_50 x_41_51 x_41_52 x_41_53 x_41_54 x_41_55 x_41_56
 x_41_57 x_41_58 x_41_59 x_41_60 x_41_61 x_41_62 x_41_63 x_41_64 x_41_65
 x_41_66 x_41_67 x_41_68 x_41_69 x_41_70 x_41_71 x_41_72 x_41_73 x_41_74
 x_41_75 x_41_76 x_41_77 x_41_78 x_41_79 x_41_80 x_41_81 x_41_82 x_41_83
 x_41_84 x_41_85 x_41_86 x_41_87 x_41_88 x_41_89 x_41_90 x_41_91 x_41_92
 x_41_93 x_41_94 x_41_95 x_41_96 x_41_97 x_41_98 x_41_99 x_90_0 x_90_1
 x_90_2 x_90_3 x_90_4 x_90_5 x_90_6 x_90_7 x_90_8 x_90_9 x_90_10 x_90_11
 x_90_12 x_90_13 x_90_14 x_90_15 x_90_16 x_90_17 x_90_18 x_90_19 x_90_20
 x_90_21 x_90_22 x_90_23 x_90_24 x_90_25 x_90_26 x_90_27 x_90_28 x_90_29
 x_90_30 x_90_31 x_90_32 x_90_33 x_90_34 x_90_35 x_90_36 x_90_37 x_90_38
 x_90_39 x_90_40 x_90_41 x_90_42 x_90_43 x_90_44 x_90_45 x_90_46 x_90_47
 x_90_48 x_90_49 x_90_50 x_90_51 x_90_52 x_90_53 x_90_54 x_90_55 x_90_56
 x_90_57 x_90_58 x_90_59 x_90_60 x_90_61 x_90_62 x_90_63 x_90_64 x_90_65
 x_90_66 x_90_67 x_90_68 x_90_69 x_90_70 x_90_71 x_90_72 x_90_73 x_90_74
 x_90_75 x_90_76 x_90_77 x_90_78 x_90_79 x_90_80 x_90_81 x_90_82 x_90_83
 x_90_84 x_90_85 x_90_86 x_90_87 x_90_88 x_90_89 x_90_90 x_90_91 x_90_92
 x_90_93 x_90_94 x_90_95 x_90_96 x_90_97 x_90_98 x_90_99
End
